
  17    4
  10   10   10   10

   0   0   0   0   0   5 2 3 4 6 8 
   6  10  10  10  10   3 9 7 5 
   9  10  10  10  10   2 7 5 
   6  10  10  10  10   5 16 15 14 13 9 
   2  10  10  10  10   6 16 15 14 13 11 10 
   4  10  10  10  10   2 15 7 
   2  10  10  10  10   4 14 13 12 11 
   1  10  10  10  10   4 15 14 13 11 
   3  10  10  10  10   2 11 10 
   1  10  10  10  10   1 12 
   8  10  10  10  10   1 17
   8  10  10  10  10   1 17
   5  10  10  10  10   1 17
   6  10  10  10  10   1 17
   2  10  10  10  10   1 17
   4  10  10  10  10   1 17
   0   0   0   0   0   0 
